NAME: CMT2_4
TYPE: CVRP
COMMENT: 835.26 - Cluster Nr.4
DIMENSION: 8
CAPACITY: 140
EDGE_WEIGHT_TYPE: EUC_2D
NODE_COORD_TYPE: TWOD_COORDS
NODE_COORD_SECTION: 
2 35 51
4 33 44
8 40 40
5 45 42
7 41 46
1 29 39
3 35 60
6 30 50
DEPOT_SECTION: 
8
-1
DEMAND_SECTION: 
4 20
7 18
1 12
3 1
6 33
2 16
5 30
8 0
EOF
